c Graph 1
p edge 6 0
c Graph 2
p edge 6 1
e 1 6
c Graph 3
p edge 6 2
e 1 6
e 2 6
c Graph 4
p edge 6 3
e 1 6
e 2 6
e 3 6
c Graph 5
p edge 6 4
e 1 6
e 2 6
e 3 6
e 4 6
c Graph 6
p edge 6 5
e 1 6
e 2 6
e 3 6
e 4 6
e 5 6
c Graph 7
p edge 6 2
e 1 5
e 2 6
c Graph 8
p edge 6 3
e 1 5
e 2 6
e 3 6
c Graph 9
p edge 6 4
e 1 5
e 2 6
e 3 6
e 4 6
c Graph 10
p edge 6 3
e 1 5
e 1 6
e 5 6
c Graph 11
p edge 6 3
e 1 5
e 1 6
e 2 6
c Graph 12
p edge 6 4
e 1 5
e 1 6
e 2 6
e 5 6
c Graph 13
p edge 6 4
e 1 5
e 1 6
e 2 6
e 3 6
c Graph 14
p edge 6 5
e 1 5
e 1 6
e 2 6
e 3 6
e 5 6
c Graph 15
p edge 6 5
e 1 5
e 1 6
e 2 6
e 3 6
e 4 6
c Graph 16
p edge 6 6
e 1 5
e 1 6
e 2 6
e 3 6
e 4 6
e 5 6
c Graph 17
p edge 6 4
e 1 5
e 2 5
e 3 6
e 4 6
c Graph 18
p edge 6 5
e 1 5
e 2 5
e 3 6
e 4 6
e 5 6
c Graph 19
p edge 6 5
e 1 5
e 1 6
e 2 5
e 3 6
e 5 6
c Graph 20
p edge 6 5
e 1 5
e 1 6
e 2 5
e 3 6
e 4 6
c Graph 21
p edge 6 6
e 1 5
e 1 6
e 2 5
e 3 6
e 4 6
e 5 6
c Graph 22
p edge 6 4
e 1 5
e 1 6
e 2 5
e 2 6
c Graph 23
p edge 6 5
e 1 5
e 1 6
e 2 5
e 2 6
e 5 6
c Graph 24
p edge 6 5
e 1 5
e 1 6
e 2 5
e 2 6
e 3 6
c Graph 25
p edge 6 6
e 1 5
e 1 6
e 2 5
e 2 6
e 3 6
e 5 6
c Graph 26
p edge 6 6
e 1 5
e 1 6
e 2 5
e 2 6
e 3 6
e 4 6
c Graph 27
p edge 6 7
e 1 5
e 1 6
e 2 5
e 2 6
e 3 6
e 4 6
e 5 6
c Graph 28
p edge 6 6
e 1 5
e 1 6
e 2 5
e 2 6
e 3 5
e 4 6
c Graph 29
p edge 6 7
e 1 5
e 1 6
e 2 5
e 2 6
e 3 5
e 4 6
e 5 6
c Graph 30
p edge 6 6
e 1 5
e 1 6
e 2 5
e 2 6
e 3 5
e 3 6
c Graph 31
p edge 6 7
e 1 5
e 1 6
e 2 5
e 2 6
e 3 5
e 3 6
e 5 6
c Graph 32
p edge 6 7
e 1 5
e 1 6
e 2 5
e 2 6
e 3 5
e 3 6
e 4 6
c Graph 33
p edge 6 8
e 1 5
e 1 6
e 2 5
e 2 6
e 3 5
e 3 6
e 4 6
e 5 6
c Graph 34
p edge 6 8
e 1 5
e 1 6
e 2 5
e 2 6
e 3 5
e 3 6
e 4 5
e 4 6
c Graph 35
p edge 6 9
e 1 5
e 1 6
e 2 5
e 2 6
e 3 5
e 3 6
e 4 5
e 4 6
e 5 6
c Graph 36
p edge 6 3
e 1 4
e 2 5
e 3 6
c Graph 37
p edge 6 4
e 1 4
e 1 6
e 2 5
e 4 6
c Graph 38
p edge 6 4
e 1 4
e 1 6
e 2 5
e 3 6
c Graph 39
p edge 6 5
e 1 4
e 1 6
e 2 5
e 3 6
e 4 6
c Graph 40
p edge 6 4
e 1 4
e 1 6
e 2 5
e 2 6
c Graph 41
p edge 6 5
e 1 4
e 1 6
e 2 5
e 2 6
e 4 6
c Graph 42
p edge 6 6
e 1 4
e 1 6
e 2 5
e 2 6
e 4 6
e 5 6
c Graph 43
p edge 6 5
e 1 4
e 1 6
e 2 5
e 2 6
e 3 6
c Graph 44
p edge 6 6
e 1 4
e 1 6
e 2 5
e 2 6
e 3 6
e 4 6
c Graph 45
p edge 6 7
e 1 4
e 1 6
e 2 5
e 2 6
e 3 6
e 4 6
e 5 6
c Graph 46
p edge 6 5
e 1 4
e 2 5
e 2 6
e 3 5
e 3 6
c Graph 47
p edge 6 6
e 1 4
e 2 5
e 2 6
e 3 5
e 3 6
e 5 6
c Graph 48
p edge 6 5
e 1 4
e 1 6
e 2 5
e 3 5
e 4 6
c Graph 49
p edge 6 6
e 1 4
e 1 6
e 2 5
e 3 5
e 4 6
e 5 6
c Graph 50
p edge 6 5
e 1 4
e 1 6
e 2 5
e 2 6
e 3 5
c Graph 51
p edge 6 6
e 1 4
e 1 6
e 2 5
e 2 6
e 3 5
e 5 6
c Graph 52
p edge 6 6
e 1 4
e 1 6
e 2 5
e 2 6
e 3 5
e 4 6
c Graph 53
p edge 6 7
e 1 4
e 1 6
e 2 5
e 2 6
e 3 5
e 4 6
e 5 6
c Graph 54
p edge 6 6
e 1 4
e 1 6
e 2 5
e 2 6
e 3 5
e 3 6
c Graph 55
p edge 6 7
e 1 4
e 1 6
e 2 5
e 2 6
e 3 5
e 3 6
e 5 6
c Graph 56
p edge 6 7
e 1 4
e 1 6
e 2 5
e 2 6
e 3 5
e 3 6
e 4 6
c Graph 57
p edge 6 8
e 1 4
e 1 6
e 2 5
e 2 6
e 3 5
e 3 6
e 4 6
e 5 6
c Graph 58
p edge 6 6
e 1 4
e 1 5
e 1 6
e 4 5
e 4 6
e 5 6
c Graph 59
p edge 6 7
e 1 4
e 1 5
e 1 6
e 2 6
e 4 5
e 4 6
e 5 6
c Graph 60
p edge 6 7
e 1 4
e 1 5
e 1 6
e 2 6
e 3 6
e 4 5
e 4 6
c Graph 61
p edge 6 8
e 1 4
e 1 5
e 1 6
e 2 6
e 3 6
e 4 5
e 4 6
e 5 6
c Graph 62
p edge 6 5
e 1 4
e 1 5
e 2 5
e 2 6
e 4 6
c Graph 63
p edge 6 6
e 1 4
e 1 5
e 2 5
e 2 6
e 3 6
e 4 6
c Graph 64
p edge 6 6
e 1 4
e 1 5
e 1 6
e 2 5
e 3 6
e 5 6
c Graph 65
p edge 6 6
e 1 4
e 1 5
e 1 6
e 2 5
e 2 6
e 5 6
c Graph 66
p edge 6 6
e 1 4
e 1 5
e 1 6
e 2 5
e 2 6
e 4 6
c Graph 67
p edge 6 7
e 1 4
e 1 5
e 1 6
e 2 5
e 2 6
e 4 6
e 5 6
c Graph 68
p edge 6 6
e 1 4
e 1 5
e 1 6
e 2 5
e 2 6
e 3 6
c Graph 69
p edge 6 7
e 1 4
e 1 5
e 1 6
e 2 5
e 2 6
e 3 6
e 5 6
c Graph 70
p edge 6 7
e 1 4
e 1 5
e 1 6
e 2 5
e 2 6
e 3 6
e 4 6
c Graph 71
p edge 6 8
e 1 4
e 1 5
e 1 6
e 2 5
e 2 6
e 3 6
e 4 6
e 5 6
c Graph 72
p edge 6 8
e 1 4
e 1 5
e 1 6
e 2 5
e 3 6
e 4 5
e 4 6
e 5 6
c Graph 73
p edge 6 8
e 1 4
e 1 5
e 1 6
e 2 5
e 2 6
e 4 5
e 4 6
e 5 6
c Graph 74
p edge 6 8
e 1 4
e 1 5
e 1 6
e 2 5
e 2 6
e 3 6
e 4 5
e 4 6
c Graph 75
p edge 6 9
e 1 4
e 1 5
e 1 6
e 2 5
e 2 6
e 3 6
e 4 5
e 4 6
e 5 6
c Graph 76
p edge 6 7
e 1 4
e 1 5
e 2 5
e 2 6
e 3 5
e 3 6
e 4 6
c Graph 77
p edge 6 8
e 1 4
e 1 5
e 2 5
e 2 6
e 3 5
e 3 6
e 4 6
e 5 6
c Graph 78
p edge 6 8
e 1 4
e 1 5
e 1 6
e 2 5
e 2 6
e 3 5
e 4 6
e 5 6
c Graph 79
p edge 6 8
e 1 4
e 1 5
e 1 6
e 2 5
e 2 6
e 3 5
e 3 6
e 5 6
c Graph 80
p edge 6 8
e 1 4
e 1 5
e 1 6
e 2 5
e 2 6
e 3 5
e 3 6
e 4 6
c Graph 81
p edge 6 9
e 1 4
e 1 5
e 1 6
e 2 5
e 2 6
e 3 5
e 3 6
e 4 6
e 5 6
c Graph 82
p edge 6 9
e 1 4
e 1 5
e 1 6
e 2 5
e 2 6
e 3 5
e 3 6
e 4 5
e 4 6
c Graph 83
p edge 6 10
e 1 4
e 1 5
e 1 6
e 2 5
e 2 6
e 3 5
e 3 6
e 4 5
e 4 6
e 5 6
c Graph 84
p edge 6 7
e 1 4
e 1 5
e 2 4
e 2 6
e 3 5
e 4 6
e 5 6
c Graph 85
p edge 6 6
e 1 4
e 1 5
e 2 4
e 2 6
e 3 5
e 3 6
c Graph 86
p edge 6 7
e 1 4
e 1 5
e 2 4
e 2 6
e 3 5
e 3 6
e 4 6
c Graph 87
p edge 6 8
e 1 4
e 1 5
e 2 4
e 2 6
e 3 5
e 3 6
e 4 6
e 5 6
c Graph 88
p edge 6 7
e 1 4
e 1 5
e 1 6
e 2 4
e 3 5
e 4 6
e 5 6
c Graph 89
p edge 6 7
e 1 4
e 1 5
e 1 6
e 2 4
e 3 5
e 3 6
e 4 6
c Graph 90
p edge 6 8
e 1 4
e 1 5
e 1 6
e 2 4
e 2 6
e 3 5
e 4 6
e 5 6
c Graph 91
p edge 6 7
e 1 4
e 1 5
e 1 6
e 2 4
e 2 6
e 3 5
e 3 6
c Graph 92
p edge 6 8
e 1 4
e 1 5
e 1 6
e 2 4
e 2 6
e 3 5
e 3 6
e 4 6
c Graph 93
p edge 6 9
e 1 4
e 1 5
e 1 6
e 2 4
e 2 6
e 3 5
e 3 6
e 4 6
e 5 6
c Graph 94
p edge 6 9
e 1 4
e 1 5
e 2 4
e 2 6
e 3 5
e 3 6
e 4 5
e 4 6
e 5 6
c Graph 95
p edge 6 9
e 1 4
e 1 5
e 1 6
e 2 4
e 2 6
e 3 5
e 3 6
e 4 5
e 4 6
c Graph 96
p edge 6 10
e 1 4
e 1 5
e 1 6
e 2 4
e 2 6
e 3 5
e 3 6
e 4 5
e 4 6
e 5 6
c Graph 97
p edge 6 7
e 1 4
e 1 5
e 1 6
e 2 4
e 2 5
e 2 6
e 4 6
c Graph 98
p edge 6 8
e 1 4
e 1 5
e 1 6
e 2 4
e 2 5
e 2 6
e 4 6
e 5 6
c Graph 99
p edge 6 7
e 1 4
e 1 5
e 1 6
e 2 4
e 2 5
e 2 6
e 3 6
c Graph 100
p edge 6 8
e 1 4
e 1 5
e 1 6
e 2 4
e 2 5
e 2 6
e 3 6
e 4 6
c Graph 101
p edge 6 9
e 1 4
e 1 5
e 1 6
e 2 4
e 2 5
e 2 6
e 3 6
e 4 6
e 5 6
c Graph 102
p edge 6 9
e 1 4
e 1 5
e 1 6
e 2 4
e 2 5
e 3 6
e 4 5
e 4 6
e 5 6
c Graph 103
p edge 6 9
e 1 4
e 1 5
e 1 6
e 2 4
e 2 5
e 2 6
e 4 5
e 4 6
e 5 6
c Graph 104
p edge 6 9
e 1 4
e 1 5
e 1 6
e 2 4
e 2 5
e 2 6
e 3 6
e 4 5
e 4 6
c Graph 105
p edge 6 10
e 1 4
e 1 5
e 1 6
e 2 4
e 2 5
e 2 6
e 3 6
e 4 5
e 4 6
e 5 6
c Graph 106
p edge 6 8
e 1 4
e 1 5
e 1 6
e 2 4
e 2 5
e 2 6
e 3 5
e 4 6
c Graph 107
p edge 6 8
e 1 4
e 1 5
e 1 6
e 2 4
e 2 5
e 2 6
e 3 5
e 3 6
c Graph 108
p edge 6 9
e 1 4
e 1 5
e 1 6
e 2 4
e 2 5
e 2 6
e 3 5
e 3 6
e 5 6
c Graph 109
p edge 6 9
e 1 4
e 1 5
e 1 6
e 2 4
e 2 5
e 2 6
e 3 5
e 3 6
e 4 6
c Graph 110
p edge 6 10
e 1 4
e 1 5
e 1 6
e 2 4
e 2 5
e 2 6
e 3 5
e 3 6
e 4 6
e 5 6
c Graph 111
p edge 6 11
e 1 4
e 1 5
e 1 6
e 2 4
e 2 5
e 2 6
e 3 5
e 3 6
e 4 5
e 4 6
e 5 6
c Graph 112
p edge 6 10
e 1 4
e 1 5
e 1 6
e 2 4
e 2 5
e 2 6
e 3 4
e 3 5
e 4 6
e 5 6
c Graph 113
p edge 6 9
e 1 4
e 1 5
e 1 6
e 2 4
e 2 5
e 2 6
e 3 4
e 3 5
e 3 6
c Graph 114
p edge 6 10
e 1 4
e 1 5
e 1 6
e 2 4
e 2 5
e 2 6
e 3 4
e 3 5
e 3 6
e 4 6
c Graph 115
p edge 6 11
e 1 4
e 1 5
e 1 6
e 2 4
e 2 5
e 2 6
e 3 4
e 3 5
e 3 6
e 4 6
e 5 6
c Graph 116
p edge 6 12
e 1 4
e 1 5
e 1 6
e 2 4
e 2 5
e 2 6
e 3 4
e 3 5
e 3 6
e 4 5
e 4 6
e 5 6
c Graph 117
p edge 6 6
e 1 3
e 1 5
e 2 4
e 2 6
e 3 5
e 4 6
c Graph 118
p edge 6 7
e 1 3
e 1 5
e 1 6
e 2 4
e 3 5
e 3 6
e 5 6
c Graph 119
p edge 6 7
e 1 3
e 1 5
e 1 6
e 2 4
e 2 6
e 3 5
e 4 6
c Graph 120
p edge 6 7
e 1 3
e 1 5
e 1 6
e 2 4
e 2 6
e 3 5
e 3 6
c Graph 121
p edge 6 8
e 1 3
e 1 5
e 1 6
e 2 4
e 2 6
e 3 5
e 3 6
e 5 6
c Graph 122
p edge 6 8
e 1 3
e 1 5
e 1 6
e 2 4
e 2 6
e 3 5
e 3 6
e 4 6
c Graph 123
p edge 6 9
e 1 3
e 1 5
e 1 6
e 2 4
e 2 6
e 3 5
e 3 6
e 4 6
e 5 6
c Graph 124
p edge 6 9
e 1 3
e 1 5
e 1 6
e 2 4
e 2 5
e 3 5
e 3 6
e 4 6
e 5 6
c Graph 125
p edge 6 8
e 1 3
e 1 5
e 1 6
e 2 4
e 2 5
e 2 6
e 3 5
e 4 6
c Graph 126
p edge 6 9
e 1 3
e 1 5
e 1 6
e 2 4
e 2 5
e 2 6
e 3 5
e 4 6
e 5 6
c Graph 127
p edge 6 9
e 1 3
e 1 5
e 1 6
e 2 4
e 2 5
e 2 6
e 3 5
e 3 6
e 5 6
c Graph 128
p edge 6 9
e 1 3
e 1 5
e 1 6
e 2 4
e 2 5
e 2 6
e 3 5
e 3 6
e 4 6
c Graph 129
p edge 6 10
e 1 3
e 1 5
e 1 6
e 2 4
e 2 5
e 2 6
e 3 5
e 3 6
e 4 6
e 5 6
c Graph 130
p edge 6 10
e 1 3
e 1 5
e 1 6
e 2 4
e 2 5
e 2 6
e 3 5
e 3 6
e 4 5
e 4 6
c Graph 131
p edge 6 11
e 1 3
e 1 5
e 1 6
e 2 4
e 2 5
e 2 6
e 3 5
e 3 6
e 4 5
e 4 6
e 5 6
c Graph 132
p edge 6 10
e 1 3
e 1 4
e 1 5
e 1 6
e 3 4
e 3 5
e 3 6
e 4 5
e 4 6
e 5 6
c Graph 133
p edge 6 10
e 1 3
e 1 4
e 1 5
e 1 6
e 2 6
e 3 4
e 3 5
e 3 6
e 4 5
e 4 6
c Graph 134
p edge 6 11
e 1 3
e 1 4
e 1 5
e 1 6
e 2 6
e 3 4
e 3 5
e 3 6
e 4 5
e 4 6
e 5 6
c Graph 135
p edge 6 10
e 1 3
e 1 4
e 1 5
e 1 6
e 2 5
e 2 6
e 3 4
e 3 5
e 3 6
e 5 6
c Graph 136
p edge 6 10
e 1 3
e 1 4
e 1 5
e 1 6
e 2 5
e 2 6
e 3 4
e 3 5
e 3 6
e 4 6
c Graph 137
p edge 6 11
e 1 3
e 1 4
e 1 5
e 1 6
e 2 5
e 2 6
e 3 4
e 3 5
e 3 6
e 4 6
e 5 6
c Graph 138
p edge 6 12
e 1 3
e 1 4
e 1 5
e 1 6
e 2 5
e 2 6
e 3 4
e 3 5
e 3 6
e 4 5
e 4 6
e 5 6
c Graph 139
p edge 6 8
e 1 3
e 1 4
e 1 6
e 2 4
e 2 5
e 2 6
e 3 5
e 4 6
c Graph 140
p edge 6 8
e 1 3
e 1 4
e 1 6
e 2 4
e 2 5
e 2 6
e 3 5
e 3 6
c Graph 141
p edge 6 9
e 1 3
e 1 4
e 1 6
e 2 4
e 2 5
e 2 6
e 3 5
e 3 6
e 4 6
c Graph 142
p edge 6 10
e 1 3
e 1 4
e 1 6
e 2 4
e 2 5
e 2 6
e 3 5
e 3 6
e 4 6
e 5 6
c Graph 143
p edge 6 9
e 1 3
e 1 4
e 1 5
e 2 4
e 2 5
e 2 6
e 3 5
e 3 6
e 4 6
c Graph 144
p edge 6 10
e 1 3
e 1 4
e 1 5
e 1 6
e 2 4
e 2 5
e 2 6
e 3 5
e 4 6
e 5 6
c Graph 145
p edge 6 10
e 1 3
e 1 4
e 1 5
e 1 6
e 2 4
e 2 5
e 2 6
e 3 5
e 3 6
e 4 6
c Graph 146
p edge 6 11
e 1 3
e 1 4
e 1 5
e 1 6
e 2 4
e 2 5
e 2 6
e 3 5
e 3 6
e 4 6
e 5 6
c Graph 147
p edge 6 12
e 1 3
e 1 4
e 1 5
e 1 6
e 2 4
e 2 5
e 2 6
e 3 5
e 3 6
e 4 5
e 4 6
e 5 6
c Graph 148
p edge 6 13
e 1 3
e 1 4
e 1 5
e 1 6
e 2 4
e 2 5
e 2 6
e 3 4
e 3 5
e 3 6
e 4 5
e 4 6
e 5 6
c Graph 149
p edge 6 11
e 1 3
e 1 4
e 1 5
e 1 6
e 2 3
e 2 4
e 2 5
e 3 5
e 3 6
e 4 6
e 5 6
c Graph 150
p edge 6 11
e 1 3
e 1 4
e 1 5
e 1 6
e 2 3
e 2 4
e 2 5
e 2 6
e 3 5
e 3 6
e 5 6
c Graph 151
p edge 6 11
e 1 3
e 1 4
e 1 5
e 1 6
e 2 3
e 2 4
e 2 5
e 2 6
e 3 5
e 3 6
e 4 6
c Graph 152
p edge 6 12
e 1 3
e 1 4
e 1 5
e 1 6
e 2 3
e 2 4
e 2 5
e 2 6
e 3 5
e 3 6
e 4 6
e 5 6
c Graph 153
p edge 6 12
e 1 3
e 1 4
e 1 5
e 1 6
e 2 3
e 2 4
e 2 5
e 2 6
e 3 5
e 3 6
e 4 5
e 4 6
c Graph 154
p edge 6 13
e 1 3
e 1 4
e 1 5
e 1 6
e 2 3
e 2 4
e 2 5
e 2 6
e 3 5
e 3 6
e 4 5
e 4 6
e 5 6
c Graph 155
p edge 6 14
e 1 3
e 1 4
e 1 5
e 1 6
e 2 3
e 2 4
e 2 5
e 2 6
e 3 4
e 3 5
e 3 6
e 4 5
e 4 6
e 5 6
c Graph 156
p edge 6 15
e 1 2
e 1 3
e 1 4
e 1 5
e 1 6
e 2 3
e 2 4
e 2 5
e 2 6
e 3 4
e 3 5
e 3 6
e 4 5
e 4 6
e 5 6
